c ren 1 -> 1
c ren 2 -> 2
c ren 3 -> 3
c ren 4 -> 4
c ren 5 -> 5
c ren 6 -> 6
c ren 7 -> 7
c ren 8 -> 8
c ren 9 -> 9
c ren 10 -> 10
c ren 11 -> 11
c ren 12 -> 12
c ren 17 -> 13
c ren 18 -> 14
c ren 19 -> 15
c ren 20 -> 16
c ren 21 -> 17
c ren 22 -> 18
c ren 23 -> 19
c ren 24 -> 20
c ren 25 -> 21
c ren 26 -> 22
c ren 27 -> 23
c ren 28 -> 24
c ren 32 -> 25
c ren 37 -> 26
c ren 58 -> 27
c ren 61 -> 28
c ren 67 -> 29
c ren 72 -> 30
p cnf 30 97
a 1 2 3 4 5 6 7 8 9 10 11 12 13 14 15 16 17 18 19 20 0
d 21 13 14 0
d 22 17 18 0
d 23 15 16 0
d 24 19 20 0
e 25 26 27 28 29 30 0
-3 -13 -25 0
3 4 -13 25 0
3 4 13 -25 0
-3 -21 -22 27 -28 -29 -30 0
-5 -14 -26 0
5 6 -14 26 0
-6 24 27 -28 -29 -30 0
5 6 14 -26 0
-5 24 27 -28 -29 -30 0
26 27 0
-4 -7 15 16 17 -25 -26 -27 0
-1 -23 27 -28 -29 -30 0
-2 24 27 -28 -29 -30 0
-3 -23 27 -28 -29 -30 0
1 2 3 4 5 6 7 -8 23 27 -28 -29 -30 0
-4 24 27 -28 -29 -30 0
-1 -7 15 16 17 -25 -26 -27 0
1 2 3 4 -5 -8 -15 16 17 -25 -26 -27 0
1 2 3 4 5 6 7 8 12 -24 27 -28 -29 -30 0
-4 -5 -8 15 16 17 -25 -26 -27 0
-7 24 27 -28 -29 -30 0
-3 -5 -8 15 16 17 -25 -26 -27 0
8 -23 27 -28 -29 -30 0
-5 -23 27 -28 -29 -30 0
1 2 3 4 5 6 7 -8 -15 -16 17 -25 -26 -27 0
1 2 3 4 5 6 8 -9 21 27 -28 -29 -30 0
-4 -23 27 -28 -29 -30 0
1 2 3 4 -7 -15 16 17 -25 -26 -27 0
-7 -21 -22 27 -28 -29 -30 0
-3 7 8 15 16 -17 -25 -26 -27 0
-8 -21 -22 27 -28 -29 -30 0
-1 -5 -8 15 16 17 -25 -26 -27 0
1 2 -9 -18 28 0
9 -21 -22 27 -28 -29 -30 0
1 2 3 4 5 6 8 10 -11 21 27 -28 -29 -30 0
-2 -21 -22 27 -28 -29 -30 0
-1 -21 -22 27 -28 -29 -30 0
1 2 -3 8 9 10 12 -21 27 -28 -29 -30 0
-1 24 27 -28 -29 -30 0
9 10 -19 29 0
9 10 11 -12 24 27 -28 -29 -30 0
11 -12 -20 30 0
12 20 30 0
-11 20 30 0
-2 5 6 7 -8 15 -16 17 -25 -26 -27 0
-6 14 26 0
-2 -7 15 16 17 -25 -26 -27 0
-2 -23 27 -28 -29 -30 0
-3 24 27 -28 -29 -30 0
1 2 3 4 5 6 7 8 -10 -24 27 -28 -29 -30 0
9 18 28 0
1 2 3 4 5 6 -7 21 27 -28 -29 -30 0
-5 14 26 0
-2 7 8 15 16 -17 -25 -26 -27 0
25 27 0
-6 -14 -26 0
1 2 -3 -7 -21 27 -28 -29 -30 0
-8 24 27 -28 -29 -30 0
-6 -23 27 -28 -29 -30 0
-3 -6 -8 15 16 17 -25 -26 -27 0
-3 5 6 7 -8 15 -16 17 -25 -26 -27 0
-4 -6 -8 15 16 17 -25 -26 -27 0
-1 5 6 7 -8 15 -16 17 -25 -26 -27 0
-4 -13 -25 0
-4 13 25 0
1 2 -5 -7 -21 27 -28 -29 -30 0
-1 18 28 0
-2 18 28 0
1 2 -5 8 9 10 12 -21 27 -28 -29 -30 0
1 2 -6 8 9 10 12 -21 27 -28 -29 -30 0
1 2 -6 -7 -21 27 -28 -29 -30 0
1 2 -6 8 9 10 -11 -21 27 -28 -29 -30 0
1 2 3 4 5 6 7 8 -9 22 27 -28 -29 -30 0
-6 -21 -22 27 -28 -29 -30 0
1 2 -5 8 9 10 -11 -21 27 -28 -29 -30 0
1 2 3 4 5 6 8 10 12 21 27 -28 -29 -30 0
1 2 3 4 5 6 7 8 -9 -24 27 -28 -29 -30 0
-1 7 8 15 16 -17 -25 -26 -27 0
1 2 3 4 -6 -8 -15 16 17 -25 -26 -27 0
-3 -7 15 16 17 -25 -26 -27 0
-2 -6 -8 15 16 17 -25 -26 -27 0
-1 -6 -8 15 16 17 -25 -26 -27 0
1 2 -4 -7 -21 27 -28 -29 -30 0
-7 -23 27 -28 -29 -30 0
-4 -21 -22 27 -28 -29 -30 0
-4 5 6 7 -8 15 -16 17 -25 -26 -27 0
1 2 3 4 7 8 -15 16 -17 -25 -26 -27 0
-3 13 25 0
1 2 -3 8 9 10 -11 -21 27 -28 -29 -30 0
1 2 -4 8 9 10 -11 -21 27 -28 -29 -30 0
-4 7 8 15 16 -17 -25 -26 -27 0
-10 19 29 0
1 2 -4 8 9 10 12 -21 27 -28 -29 -30 0
1 2 3 4 5 6 7 8 -11 -24 27 -28 -29 -30 0
-5 -21 -22 27 -28 -29 -30 0
-9 19 29 0
-2 -5 -8 15 16 17 -25 -26 -27 0
